# From "Some Minesweeper Configurations",page 2
param r := 6;
param c := 6;
param game: 1 2 3 4 5 6 :=
  1   . . . . . . 
  2   . 2 2 2 2 . 
  3   . 2 0 0 2 . 
  4   . 2 0 0 2 . 
  5   . 2 2 2 2 . 
  6   . . . . . . 
;
